c description: Random 3-CNF over 15 variables and 30 clauses
c generator: CNFgen (0.9.0)
c copyright: (C) 2012-2020 Massimo Lauria <massimo.lauria@uniroma1.it>
c url: https://massimolauria.net/cnfgen
c
p cnf 15 30
-3 6 8 0
-6 -10 11 0
-3 -10 -12 0
6 -8 -15 0
1 -5 -15 0
2 4 15 0
-1 -4 9 0
-4 -5 -15 0
7 11 -15 0
8 10 -12 0
-1 -6 -8 0
6 -7 12 0
2 -10 11 0
-6 8 -14 0
-4 10 -12 0
-5 -10 -12 0
1 -5 10 0
1 -2 -7 0
-3 5 -7 0
-3 -6 10 0
4 9 11 0
1 -4 7 0
1 7 14 0
1 -3 -8 0
-3 7 15 0
1 -3 11 0
2 -7 -12 0
-1 -3 -4 0
-8 9 15 0
-4 11 14 0